50	100	100	100
6	80	54
80	27	91
79	66	86
65	30	22
62	19	47
31	28	88
76	22	43
43	58	44
76	47	13
15	1	80
75	72	63
54	45	88
14	40	13
33	51	90
21	23	48
32	23	85
21	10	27
6	94	7
52	15	64
19	14	42
32	33	99
86	59	39
28	5	98
95	60	65
86	40	67
24	27	3
95	98	45
76	39	94
64	60	55
32	35	84
53	71	29
35	3	2
16	68	7
59	40	43
27	90	67
59	54	96
23	16	35
72	57	51
51	29	81
66	89	12
35	6	21
67	30	62
98	15	85
72	15	79
4	84	5
33	38	78
64	13	13
30	86	79
67	61	84
77	45	49
